Gurobi Optimizer version 9.1.2 build v9.1.2rc0 (linux64)
Thread count: 36 physical cores, 72 logical processors, using up to 32 threads
Optimize a model with 12 rows, 57 columns and 590 nonzeros
Model fingerprint: 0xf32eec78
Model has 47 quadratic constraints
Coefficient statistics:
  Matrix range     [2e-05, 3e+00]
  QMatrix range    [1e+00, 1e+00]
  QLMatrix range   [1e+00, 1e+00]
  Objective range  [8e-03, 7e-01]
  Bounds range     [1e+00, 1e+00]
  RHS range        [1e+00, 1e+00]
Presolve removed 9 rows and 0 columns

Continuous model is non-convex -- solving as a MIP.

Presolve removed 9 rows and 0 columns
Presolve time: 0.00s
Presolved: 189 rows, 57 columns, 443 nonzeros
Presolved model has 47 bilinear constraint(s)
Variable types: 57 continuous, 0 integer (0 binary)

Root relaxation: objective -1.743721e+00, 44 iterations, 0.00 seconds

    Nodes    |    Current Node    |     Objective Bounds      |     Work
 Expl Unexpl |  Obj  Depth IntInf | Incumbent    BestBd   Gap | It/Node Time

     0     0   -1.74372    0   38          -   -1.74372      -     -    0s
H    0     0                       0.6147548   -1.74372   384%     -    0s
     0     0   -1.64739    0    1    0.61475   -1.64739   368%     -    0s
H    0     0                      -1.6450460   -1.64739  0.14%     -    0s
     0     0     cutoff    0        -1.64505   -1.64505  0.00%     -    0s

Cutting planes:
  RLT: 25
  BQP: 3

Explored 1 nodes (76 simplex iterations) in 0.01 seconds
Thread count was 32 (of 72 available processors)

Solution count 2: -1.64505 0.614755 
No other solutions better than -1.64505

Optimal solution found (tolerance 1.00e-04)
Best objective -1.645045978473e+00, best bound -1.645045978473e+00, gap 0.0000%

User-callback calls 78, time in user-callback 0.00 sec
Gurobi Optimizer version 9.1.2 build v9.1.2rc0 (linux64)
Thread count: 36 physical cores, 72 logical processors, using up to 32 threads
Optimize a model with 12 rows, 57 columns and 590 nonzeros
Model fingerprint: 0x6ed04d64
Model has 47 quadratic constraints
Coefficient statistics:
  Matrix range     [2e-05, 3e+00]
  QMatrix range    [1e+00, 1e+00]
  QLMatrix range   [1e+00, 1e+00]
  Objective range  [6e-03, 8e-01]
  Bounds range     [1e+00, 1e+00]
  RHS range        [1e+00, 1e+00]
Presolve removed 9 rows and 0 columns

Continuous model is non-convex -- solving as a MIP.

Presolve removed 9 rows and 0 columns
Presolve time: 0.00s
Presolved: 189 rows, 57 columns, 443 nonzeros
Presolved model has 47 bilinear constraint(s)
Variable types: 57 continuous, 0 integer (0 binary)

Root relaxation: objective -1.143780e+00, 41 iterations, 0.00 seconds

    Nodes    |    Current Node    |     Objective Bounds      |     Work
 Expl Unexpl |  Obj  Depth IntInf | Incumbent    BestBd   Gap | It/Node Time

     0     0   -1.14378    0   38          -   -1.14378      -     -    0s
H    0     0                       0.7892820   -1.14378   245%     -    0s
     0     0   -0.94552    0   10    0.78928   -0.94552   220%     -    0s
H    0     0                      -0.8530737   -0.94552  10.8%     -    0s
     0     0   -0.92564    0   21   -0.85307   -0.92564  8.51%     -    0s
H    0     0                      -0.9006726   -0.92564  2.77%     -    0s
     0     0   -0.92387    0   10   -0.90067   -0.92387  2.58%     -    0s
     0     0   -0.92314    0   15   -0.90067   -0.92314  2.49%     -    0s
H    0     0                      -0.9184090   -0.92314  0.51%     -    0s
     0     0   -0.92291    0    9   -0.91841   -0.92291  0.49%     -    0s
H    0     0                      -0.9205838   -0.92291  0.25%     -    0s
     0     0   -0.92240    0    3   -0.92058   -0.92240  0.20%     -    0s
H    0     0                      -0.9219131   -0.92240  0.05%     -    0s
H    0     0                      -0.9219171   -0.92240  0.05%     -    0s
     0     2   -0.92240    0    3   -0.92192   -0.92240  0.05%     -    0s
*    1     0               1      -0.9219194   -0.92240  0.05%   5.0    0s
*    2     0               1      -0.9219197   -0.92192  0.00%   8.5    0s

Cutting planes:
  RLT: 14
  BQP: 3

Explored 3 nodes (139 simplex iterations) in 0.08 seconds
Thread count was 32 (of 72 available processors)

Solution count 9: -0.92192 -0.921919 -0.921917 ... 0.789282

Optimal solution found (tolerance 1.00e-04)
Best objective -9.219197002046e-01, best bound -9.219197002046e-01, gap 0.0000%

User-callback calls 139, time in user-callback 0.00 sec



objective value: -0.9219197002045518
objective bound: -0.9219197002045518
x_opt: [0.5054356460725593, 0.0, 0.0, 1.0, 0.0, 0.0, 0.0, 1.0000000000000002, 0.0, 0.8286517795418459]
GUROBI solution time: 0.07985997200012207




